Gurobi 12.0.3:   lim:time = 2000
Set parameter LogToConsole to value 1
  tech:outlev = 1
Set parameter InfUnbdInfo to value 1
Gurobi Optimizer version 12.0.3 build v12.0.3rc0 (win64 - Windows 11+.0 (26200.2))

CPU model: 12th Gen Intel(R) Core(TM) i7-12700, instruction set [SSE2|AVX|AVX2]
Thread count: 12 physical cores, 20 logical processors, using up to 20 threads

Non-default parameters:
TimeLimit  2000
InfUnbdInfo  1

Optimize a model with 868 rows, 280 columns and 4318 nonzeros
Model fingerprint: 0xd2ec5f7d
Model has 54 quadratic constraints
Model has 9 general nonlinear constraints (30 nonlinear terms)
Variable types: 54 continuous, 226 integer (0 binary)
Coefficient statistics:
  Matrix range     [1e+00, 1e+06]
  QMatrix range    [1e+00, 1e+00]
  QLMatrix range   [1e+00, 6e+00]
  Objective range  [3e+01, 5e+02]
  Bounds range     [1e+00, 1e+06]
  RHS range        [1e+00, 1e+06]
Presolve model has 9 nlconstr
Added 33 variables to disaggregate expressions.
Presolve removed 124 rows and 21 columns
Presolve time: 0.03s
Presolved: 948 rows, 353 columns, 4581 nonzeros
Presolved model has 12 SOS constraint(s)
Presolved model has 30 bilinear constraint(s)

Solving non-convex MIQCP

Variable types: 115 continuous, 238 integer (220 binary)
Found heuristic solution: objective 7510.0000000
Found heuristic solution: objective 96.0000000

Root relaxation: objective 3.200000e+01, 73 iterations, 0.00 seconds (0.00 work units)

    Nodes    |    Current Node    |     Objective Bounds      |     Work
 Expl Unexpl |  Obj  Depth IntInf | Incumbent    BestBd   Gap | It/Node Time

     0     0   32.00000    0    5   96.00000   32.00000  66.7%     -    0s
H    0     0                      32.0000000   32.00000  0.00%     -    0s
     0     0   32.00000    0    5   32.00000   32.00000  0.00%     -    0s

Explored 1 nodes (73 simplex iterations) in 0.11 seconds (0.07 work units)
Thread count was 20 (of 20 available processors)

Solution count 3: 32 96 7510 

Optimal solution found (tolerance 1.00e-04)
Best objective 3.200000000000e+01, best bound 3.200000000000e+01, gap 0.0000%

AMPL MP initial flat model has 262 variables (9 integer, 217 binary);
Objectives: 1 linear; 
Constraints:  859 linear; 72 quadratic;

AMPL MP final model has 280 variables (9 integer, 217 binary);
Objectives: 1 linear; 
Constraints:  868 linear; 72 quadratic;


Gurobi 12.0.3: optimal solution; objective 32
73 simplex iterations
1 branching node
lp, wp, hp: begin
1: 4.500000 5.600000 10.500000
2: 4.500000 5.600000 10.500000
3: 4.500000 5.600000 10.500000
lp, wp, hp: end
LB, WB, HB: begin
1: 28.000000 15.000000 15.000000
2: 28.000000 15.000000 15.000000
3: 28.000000 15.000000 15.000000
4: 28.000000 15.000000 15.000000
5: 28.000000 15.000000 15.000000
6: 28.000000 15.000000 15.000000
7: 28.000000 15.000000 15.000000
8: 28.000000 15.000000 15.000000
9: 28.000000 15.000000 15.000000
10: 28.000000 15.000000 15.000000
11: 42.000000 32.000000 26.000000
12: 42.000000 32.000000 26.000000
13: 42.000000 32.000000 26.000000
14: 42.000000 32.000000 26.000000
15: 42.000000 32.000000 26.000000
16: 42.000000 32.000000 26.000000
17: 42.000000 32.000000 26.000000
18: 42.000000 32.000000 26.000000
19: 42.000000 32.000000 26.000000
20: 42.000000 32.000000 26.000000
21: 45.700000 45.700000 40.600000
22: 45.700000 45.700000 40.600000
23: 45.700000 45.700000 40.600000
24: 45.700000 45.700000 40.600000
25: 45.700000 45.700000 40.600000
26: 45.700000 45.700000 40.600000
27: 45.700000 45.700000 40.600000
28: 45.700000 45.700000 40.600000
29: 45.700000 45.700000 40.600000
30: 45.700000 45.700000 40.600000
31: 61.000000 46.000000 61.000000
32: 61.000000 46.000000 61.000000
33: 61.000000 46.000000 61.000000
34: 61.000000 46.000000 61.000000
35: 61.000000 46.000000 61.000000
36: 61.000000 46.000000 61.000000
37: 61.000000 46.000000 61.000000
38: 61.000000 46.000000 61.000000
39: 61.000000 46.000000 61.000000
40: 61.000000 46.000000 61.000000
LB, WB, HB: end
l_px, l_py, w_px, w_py: begin
1: 0 1 1 0
2: 0 1 1 0
3: 0 1 1 0
l_px, l_py, w_px, w_py: end
xp, yp, zp, on_floor: begin
1: 0.000000 5.000000 0.000000 1
2: 0.000000 0.000000 0.000000 1
3: 6.000000 0.000000 0.000000 1
xp, yp, zp, on_floor: end
product ->carton: begin
1 -> 1
2 -> 1
3 -> 1
product ->carton: end
